W=9;
H=3;

MAX_TIME=17;
MAX_TRACKS=11;

TARGET=(2,9);

N_TRAINS=2;
TRAINS=[(3,7,LEFT),(1,7,LEFT)];

N_INIT_POS=6;
INIT_POS=[
(1,3,STRAIGHT_RL),
(1,7,STRAIGHT_RL),
(2,6,EMPTY),
(2,9,STRAIGHT_RL),
(3,3,STRAIGHT_RL),
(3,7,STRAIGHT_RL),
];
N_TUNNELS=2;
TUNNEL_PAIRS=[
  (1, 1, RIGHT, 3, 6, RIGHT),
  (1, 6, RIGHT, 3, 1, RIGHT),
];

N_GATES=0;
GATES=[];
N_ACTIVATIONS=0;
ACTIVATIONS=[];

N_DSWITCHES=0;
DSWITCHES=[];
N_STATIONS=2;
STATIONS=[
  (1,3,1),
  (3,3,2),
];
